(declare-const |mem_21@width'| Int)
(declare-const |mem_22'| Int)
(declare-const |mem_21@pos'| Int)
(declare-const term_to_project_onto4 Real)
(declare-const term_to_project_onto7 Real)
(declare-const mem_21@pos Int)
(declare-const |mem_21'| Int)
(declare-const |mem_21'0| Int)
(declare-const |x'| Int)
(declare-const mem_20 Int)
(declare-const |j'0| Int)
(declare-const |mem_21@width'0| Int)
(declare-const |y'| Int)
(declare-const x Int)
(declare-const |mem_20@width'| Int)
(declare-const j Int)
(declare-const |mem_22'0| Int)
(declare-const mem_22@width Int)
(declare-const |mem_22@pos'| Int)
(declare-const |mem_22@width'| Int)
(declare-const |i'| Int)
(declare-const |x'0| Int)
(declare-const |mem_20@pos'| Int)
(declare-const term_to_project_onto8 Real)
(declare-const mem_21 Int)
(declare-const mem_22 Int)
(declare-const K Int)
(declare-const |mem_22@pos'0| Int)
(declare-const term_to_project_onto5 Real)
(declare-const |mem_21@pos'0| Int)
(declare-const |j'| Int)
(declare-const term_to_project_onto3 Real)
(declare-const i Int)
(declare-const |y'0| Int)
(declare-const mem_20@width Int)
(declare-const term_to_project_onto1 Real)
(declare-const |mem_20@pos'0| Int)
(declare-const nodecount Int)
(declare-const term_to_project_onto10 Real)
(declare-const term_to_project_onto9 Real)
(declare-const |mem_20'0| Int)
(declare-const term_to_project_onto6 Real)
(declare-const mem_22@pos Int)
(declare-const |mem_20'| Int)
(declare-const mem_21@width Int)
(declare-const term_to_project_onto Real)
(declare-const term_to_project_onto2 Real)
(declare-const term_to_project_onto11 Real)
(declare-const y Int)
(declare-const term_to_project_onto0 Real)
(declare-const edgecount Int)
(declare-const mem_20@pos Int)
(declare-const |mem_20@width'0| Int)
(declare-const |mem_22@width'0| Int)
(assert (and (<= (+ (- edgecount) 1) 0) (<= (+ (- nodecount) 1) 0)
               (<= (- i) 0) (= (+ (- nodecount) 5) 0)
               (= (+ (* 4 nodecount) (- edgecount)) 0)
               (<= (+ i (- nodecount) 1) 0) (= (+ (- |j'0|) K) 0)
               (or (and (= K 0) (= (+ (- |mem_22@width'0|) mem_22@width) 0)
                          (= (+ (- |mem_21@width'0|) mem_21@width) 0)
                          (= (+ (- |mem_20@width'0|) mem_20@width) 0)
                          (= (+ (- |mem_22@pos'0|) mem_22@pos) 0)
                          (= (+ (- |mem_21@pos'0|) mem_21@pos) 0)
                          (= (+ (- |mem_20@pos'0|) mem_20@pos) 0)
                          (= (+ (- |mem_22'0|) mem_22) 0)
                          (= (+ (- |mem_21'0|) mem_21) 0)
                          (= (+ (- |mem_20'0|) mem_20) 0) (= (- |j'0|) 0)
                          (= (+ (- |y'0|) y) 0) (= (+ (- |x'0|) x) 0))
                     (and (<= (+ (- K) 1) 0) (= (+ edgecount -20) 0)
                            (= (+ edgecount -20) 0) (<= (+ |j'0| -20) 0)
                            (<= (+ (- |j'0|) 1) 0))) (<= (- K) 0)
               (<= (+ (- edgecount) 1) 0) (<= (- |j'0|) 0)
               (= (+ (- edgecount) 20) 0) (<= (+ (- |j'0|) edgecount) 0)
               (= (+ |mem_22@width'| (- |mem_22@width'0|)) 0)
               (= (+ |mem_21@width'| (- |mem_21@width'0|)) 0)
               (= (+ |mem_20@width'| (- |mem_20@width'0|)) 0)
               (= (+ |mem_22@pos'| (- |mem_22@pos'0|)) 0)
               (= (+ |mem_21@pos'| (- |mem_21@pos'0|)) 0)
               (= (+ |mem_20@pos'| (- |mem_20@pos'0|)) 0)
               (= (+ |mem_22'| (- |mem_22'0|)) 0)
               (= (+ |mem_21'| (- |mem_21'0|)) 0)
               (= (+ |mem_20'| (- |mem_20'0|)) 0) (= (+ |j'| (- |j'0|)) 0)
               (= (+ |i'| (- i) -1) 0) (= (+ |y'| (- |y'0|)) 0)
               (= (+ |x'| (- |x'0|)) 0)
               (= term_to_project_onto11 (+ |x'| (- x)))
               (= term_to_project_onto10 (+ |y'| (- y)))
               (= term_to_project_onto9 (+ |i'| (- i)))
               (= term_to_project_onto8 (+ |j'| (- j)))
               (= term_to_project_onto7 (+ |mem_20'| (- mem_20)))
               (= term_to_project_onto6 (+ |mem_21'| (- mem_21)))
               (= term_to_project_onto5 (+ |mem_22'| (- mem_22)))
               (= term_to_project_onto4 (+ |mem_20@pos'| (- mem_20@pos)))
               (= term_to_project_onto3 (+ |mem_21@pos'| (- mem_21@pos)))
               (= term_to_project_onto2 (+ |mem_22@pos'| (- mem_22@pos)))
               (= term_to_project_onto1 (+ |mem_20@width'| (- mem_20@width)))
               (= term_to_project_onto0 (+ |mem_21@width'| (- mem_21@width)))
               (= term_to_project_onto (+ |mem_22@width'| (- mem_22@width)))))
(check-sat)
